
Gurobi 9.0.1 (linux64) logging started Thu Apr 30 18:32:41 2020

Gurobi Optimizer version 9.0.1 build v9.0.1rc0 (linux64)
Optimize a model with 12977 rows, 12060 columns and 202290 nonzeros
Model fingerprint: 0x760216b2
Variable types: 0 continuous, 12060 integer (12032 binary)
Coefficient statistics:
  Matrix range     [1e+00, 1e+01]
  Objective range  [1e+00, 1e+02]
  Bounds range     [1e+00, 1e+00]
  RHS range        [1e+00, 1e+00]

User MIP start produced solution with objective 909 (0.30s)
Loaded user MIP start with objective 909

Presolve removed 4372 rows and 3570 columns
Presolve time: 3.26s
Presolved: 8605 rows, 8490 columns, 166725 nonzeros
Variable types: 0 continuous, 8490 integer (8464 binary)

Root simplex log...

Iteration    Objective       Primal Inf.    Dual Inf.      Time
    2181    5.3699221e+02   2.802016e+03   0.000000e+00      5s
    5485    5.4964227e+02   5.497256e+02   0.000000e+00     10s
    7532    5.5148155e+02   8.507517e+01   0.000000e+00     15s
    8552    5.5156479e+02   0.000000e+00   0.000000e+00     17s

Root relaxation: objective 5.515648e+02, 8552 iterations, 13.77 seconds

    Nodes    |    Current Node    |     Objective Bounds      |     Work
 Expl Unexpl |  Obj  Depth IntInf | Incumbent    BestBd   Gap | It/Node Time

     0     0  551.56479    0 1646  909.00000  551.56479  39.3%     -   19s
     0     0  576.60137    0 1771  909.00000  576.60137  36.6%     -   75s
     0     0  577.05813    0 1780  909.00000  577.05813  36.5%     -   88s
     0     0  577.10284    0 1760  909.00000  577.10284  36.5%     -   92s
     0     0  577.10605    0 1744  909.00000  577.10605  36.5%     -   93s
     0     0  584.71303    0 1834  909.00000  584.71303  35.7%     -  128s
     0     0  584.84244    0 1800  909.00000  584.84244  35.7%     -  137s
     0     0  585.79296    0 1774  909.00000  585.79296  35.6%     -  154s
     0     0  585.80645    0 1798  909.00000  585.80645  35.6%     -  156s
     0     0  585.80833    0 1767  909.00000  585.80833  35.6%     -  157s
     0     0  591.60460    0 1808  909.00000  591.60460  34.9%     -  220s
     0     0  592.83245    0 1845  909.00000  592.83245  34.8%     -  264s
     0     0  592.96241    0 1840  909.00000  592.96241  34.8%     -  279s
     0     0  592.99630    0 1851  909.00000  592.99630  34.8%     -  285s
     0     0  593.03176    0 1869  909.00000  593.03176  34.8%     -  291s
     0     0  593.03360    0 1837  909.00000  593.03360  34.8%     -  294s
     0     0  596.10421    0 1815  909.00000  596.10421  34.4%     -  385s
     0     0  596.55831    0 1852  909.00000  596.55831  34.4%     -  419s
     0     0  596.59873    0 1847  909.00000  596.59873  34.4%     -  427s
     0     0  596.60310    0 1822  909.00000  596.60310  34.4%     -  432s
     0     0  598.19204    0 1856  909.00000  598.19204  34.2%     -  507s
     0     0  598.28712    0 1840  909.00000  598.28712  34.2%     -  524s
     0     0  598.31137    0 1868  909.00000  598.31137  34.2%     -  531s
     0     0  598.31492    0 1862  909.00000  598.31492  34.2%     -  534s
     0     0  598.99772    0 1915  909.00000  598.99772  34.1%     -  571s
     0     0  599.06247    0 1900  909.00000  599.06247  34.1%     -  587s
     0     0  599.07295    0 1900  909.00000  599.07295  34.1%     -  593s
     0     0  599.46908    0 1903  909.00000  599.46908  34.1%     -  628s
     0     0  599.51046    0 1925  909.00000  599.51046  34.0%     -  641s
     0     0  599.52226    0 1907  909.00000  599.52226  34.0%     -  647s
     0     0  600.17126    0 1922  909.00000  600.17126  34.0%     -  686s
     0     0  600.23261    0 1916  909.00000  600.23261  34.0%     -  701s
     0     0  600.24823    0 1917  909.00000  600.24823  34.0%     -  707s
     0     0  600.68079    0 1899  909.00000  600.68079  33.9%     -  742s
     0     0  600.76079    0 1913  909.00000  600.76079  33.9%     -  760s
     0     0  600.77026    0 1901  909.00000  600.77026  33.9%     -  765s
     0     0  601.14148    0 1859  909.00000  601.14148  33.9%     -  796s
     0     0  601.20606    0 1872  909.00000  601.20606  33.9%     -  816s
     0     0  601.22272    0 1906  909.00000  601.22272  33.9%     -  822s
     0     0  601.86995    0 1929  909.00000  601.86995  33.8%     -  857s
     0     0  601.89537    0 1915  909.00000  601.89537  33.8%     -  872s
     0     0  601.89832    0 1939  909.00000  601.89832  33.8%     -  875s
     0     0  602.28869    0 1925  909.00000  602.28869  33.7%     -  903s
     0     0  602.37486    0 1946  909.00000  602.37486  33.7%     -  927s
     0     0  602.39454    0 1940  909.00000  602.39454  33.7%     -  934s
     0     0  603.22422    0 1970  909.00000  603.22422  33.6%     -  965s
     0     0  603.34044    0 1967  909.00000  603.34044  33.6%     -  985s
     0     0  603.38414    0 1933  909.00000  603.38414  33.6%     - 1002s
     0     0  603.38748    0 1965  909.00000  603.38748  33.6%     - 1006s
     0     0  604.29059    0 1900  909.00000  604.29059  33.5%     - 1071s
     0     0  604.75968    0 1900  909.00000  604.75968  33.5%     - 1122s
     0     0  604.80588    0 1880  909.00000  604.80588  33.5%     - 1133s
     0     0  604.82124    0 1877  909.00000  604.82124  33.5%     - 1139s
     0     0  606.11639    0 1893  909.00000  606.11639  33.3%     - 1201s
     0     0  606.25196    0 1923  909.00000  606.25196  33.3%     - 1233s
     0     0  606.26274    0 1922  909.00000  606.26274  33.3%     - 1239s
     0     0  606.59526    0 1911  909.00000  606.59526  33.3%     - 1271s
     0     0  606.66207    0 1899  909.00000  606.66207  33.3%     - 1289s
     0     0  606.68966    0 1923  909.00000  606.68966  33.3%     - 1299s
     0     0  607.15176    0 1889  909.00000  607.15176  33.2%     - 1339s
     0     0  607.24144    0 1905  909.00000  607.24144  33.2%     - 1361s
     0     0  607.28984    0 1896  909.00000  607.28984  33.2%     - 1372s
     0     0  607.29518    0 1888  909.00000  607.29518  33.2%     - 1377s
     0     0  607.80171    0 1878  909.00000  607.80171  33.1%     - 1430s
     0     0  607.93759    0 1907  909.00000  607.93759  33.1%     - 1450s
     0     0  607.95576    0 1914  909.00000  607.95576  33.1%     - 1457s
     0     0  608.22654    0 1894  909.00000  608.22654  33.1%     - 1482s
     0     0  608.26582    0 1918  909.00000  608.26582  33.1%     - 1495s
     0     0  608.29796    0 1915  909.00000  608.29796  33.1%     - 1504s
     0     0  608.30026    0 1925  909.00000  608.30026  33.1%     - 1508s
     0     0  608.68546    0 1898  909.00000  608.68546  33.0%     - 1534s
     0     0  608.74624    0 1916  909.00000  608.74624  33.0%     - 1547s
     0     0  608.81333    0 1895  909.00000  608.81333  33.0%     - 1559s
     0     0  608.82415    0 1920  909.00000  608.82415  33.0%     - 1565s
     0     0  609.19060    0 1941  909.00000  609.19060  33.0%     - 1602s
     0     0  609.21879    0 1964  909.00000  609.21879  33.0%     - 1628s
     0     0  609.51283    0 1943  909.00000  609.51283  32.9%     - 1665s
     0     0  609.51283    0 1928  909.00000  609.51283  32.9%     - 1672s
     0     2  609.52581    0 1927  909.00000  609.52581  32.9%     - 1778s
     1     3  611.96976    1 1771  909.00000  609.52581  32.9% 36365 1912s
     2     4  610.32927    1 1882  909.00000  610.32927  32.9% 23668 1956s
     3     5  612.54269    2 1838  909.00000  610.32927  32.9% 21514 2022s
     4     6  613.42766    2 1713  909.00000  611.97170  32.7% 22586 2118s
     5     7  615.34402    3 1884  909.00000  611.97170  32.7% 23165 2221s
     6     8  614.38719    3 1619  909.00000  611.97170  32.7% 25244 2348s
     7     9  616.80872    4 1657  909.00000  611.97170  32.7% 23803 2400s
     8    10  618.12174    4 1485  909.00000  611.97170  32.7% 22552 2436s
     9    11  616.98597    5 1674  909.00000  611.97170  32.7% 20595 2449s
    10    12  642.21417    6 1480  909.00000  611.97170  32.7% 20650 2504s
    11    13  617.73969    6 1673  909.00000  611.97170  32.7% 19542 2524s
    12    14  664.81468    7 1560  909.00000  611.97170  32.7% 20234 2594s
    13    15  618.40530    7 1671  909.00000  611.97170  32.7% 19257 2613s
    14    16  638.17922    8 1522  909.00000  611.97170  32.7% 19516 2662s
    15    17  618.63162    8 1647  909.00000  611.97170  32.7% 18607 2675s
    16    18  618.84460    9 1650  909.00000  611.97170  32.7% 17733 2686s
    17    19  619.00753   10 1647  909.00000  611.97170  32.7% 17013 2698s
    18    20  619.07563   11 1655  909.00000  611.97170  32.7% 16240 2705s
    19    21  652.73286   12 1470  909.00000  611.97170  32.7% 16674 2759s
    20    22  619.49516   12 1627  909.00000  611.97170  32.7% 16237 2783s
    21    23  652.55428   13 1469  909.00000  611.97170  32.7% 16455 2831s
    22    24  620.10801   13 1654  909.00000  611.97170  32.7% 16302 2879s
    23    25  644.04634   14 1447  909.00000  611.97170  32.7% 16989 2975s
    24    26  620.27143   14 1642  909.00000  611.97170  32.7% 16496 2987s
    25    27  649.44731   15 1395  909.00000  611.97170  32.7% 16837 3048s
    26    28  620.83545   15 1605  909.00000  611.97170  32.7% 16524 3074s
    27    29  654.98875   16 1464  909.00000  611.97170  32.7% 17785 3236s
    28    30  621.48532   16 1613  909.00000  611.97170  32.7% 17399 3251s
    29    31  662.27898   17 1521  909.00000  611.97170  32.7% 17615 3305s
    30    32  622.04808   17 1579  909.00000  611.97170  32.7% 17210 3320s
    31    33  622.51580   18 1543  909.00000  611.97170  32.7% 16805 3332s
    32    34  622.78988   19 1593  909.00000  611.97170  32.7% 16391 3388s
    33    35  634.28162   20 1401  909.00000  611.97170  32.7% 16519 3437s
    34    36  624.00738   20 1619  909.00000  611.97170  32.7% 16153 3450s
    35    37  662.48849   21 1418  909.00000  611.97170  32.7% 16756 3549s
    36    38  624.41825   21 1679  909.00000  611.97170  32.7% 16413 3559s
    37    39  650.89371   22 1393  909.00000  611.97170  32.7% 16326 3586s

Cutting planes:
  Gomory: 2
  Cover: 1
  MIR: 106
  StrongCG: 2
  GUB cover: 1
  Zero half: 53
  Mod-K: 5
  RLT: 1143

Explored 38 nodes (1004366 simplex iterations) in 3600.01 seconds
Thread count was 1 (of 40 available processors)

Solution count 1: 909 

Time limit reached
Best objective 9.090000000000e+02, best bound 6.120000000000e+02, gap 32.6733%

User-callback calls 48689, time in user-callback 0.11 sec
